####################################################################### 
# 
# This file contains crystal structure data downloaded from the 
# Cambridge Structural Database (CSD) hosted by the Cambridge 
# Crystallographic Data Centre (CCDC).
# 
# Full information about CCDC data access policies and citation 
# guidelines are available at http://www.ccdc.cam.ac.uk/access/V1 
# 
# Audit and citation data items may have been added by the CCDC. 
# Please retain this information to preserve the provenance of 
# this file and to allow appropriate attribution of the data. 
# 
#######################################################################

data_mm248a
_audit_block_doi                 10.5517/cc1180fr
_database_code_depnum_ccdc_archive 'CCDC 961013'
loop_
_citation_id
_citation_doi
_citation_year
1 10.1002/anie.201310451 2014
_audit_update_record             
;
2013-09-14 deposited with the CCDC.	2021-05-19 downloaded from the CCDC.
;
_audit_creation_method           SHELXL-97
_audit_creation_date             2013-06-17
_chemical_formula_sum            'C34 H52 Dy K O7.50'
_chemical_formula_weight         782.360
_refine_ls_R_factor_all          0.077
_cell_length_a                   19.839(3)
_cell_length_b                   11.5419(16)
_cell_length_c                   16.297(2)
_cell_angle_alpha                90.000
_cell_angle_beta                 90.000
_cell_angle_gamma                90.000
_cell_volume                     3731.7(9)
_cell_formula_units_Z            4
_symmetry_int_tables_number      62
_symmetry_space_group_name_H-M   'P n m a'
_symmetry_space_group_name_Hall  -P_2ac_2n

loop_
_symmetry_equiv_pos_site_id
_symmetry_equiv_pos_as_xyz
1 x,y,z
2 1/2-x,-y,1/2+z
3 1/2+x,1/2-y,1/2-z
4 -x,1/2+y,-z
5 -x,-y,-z
6 1/2+x,y,1/2-z
7 1/2-x,1/2+y,1/2+z
8 x,1/2-y,z

loop_
_atom_type_symbol
_atom_type_oxidation_number
_atom_type_radius_bond
Dy ? 1.200
K ? 1.200
O ? 1.200
C ? 1.200
H ? 1.200


loop_
_atom_site_label
_atom_site_type_symbol
_atom_site_fract_x
_atom_site_fract_y
_atom_site_fract_z
_atom_site_occupancy
_atom_site_symmetry_multiplicity
_atom_site_Wyckoff_symbol
_atom_site_attached_hydrogens
_atom_site_calc_flag
_atom_site_thermal_displace_type
_atom_site_u_iso_or_equiv
Dy1 Dy 0.4278(0) 0.2500 0.0905(0) 1.000 4 c ? d Uani 0.02910(18)
K1 K 0.2980(2) 0.2500 -0.1649(2) 1.000 4 c ? d Uani 0.0494(8)
O1 O 0.3906(5) 0.2500 -0.3054(7) 1.000 4 c ? d Uani 0.051(2)
O2 O 0.3408(4) 0.0438(7) -0.2397(5) 1.000 8 d ? d Uani 0.0532(17)
O3 O 0.2165(4) 0.0427(8) -0.1658(5) 1.000 8 d ? d Uani 0.0573(18)
O4 O 0.1608(6) 0.2500 -0.1054(7) 1.000 4 c ? d Uani 0.064(3)
C1 C 0.5503(7) 0.2500 0.1554(8) 1.000 4 c ? d Uani 0.0371(10)
H1A H 0.5950 0.2500 0.1345 1.000 4 c ? calc Uiso 0.04400
C2 C 0.5249(5) 0.1378(9) 0.1673(6) 1.000 8 d ? d Uani 0.0371(10)
H2A H 0.5557 0.0794 0.1504 1.000 8 d ? calc Uiso 0.04400
C3 C 0.4639(5) 0.0911(9) 0.1987(6) 1.000 8 d ? d Uani 0.0371(10)
H3A H 0.4645 0.0088 0.2004 1.000 8 d ? calc Uiso 0.04400
C4 C 0.4026(5) 0.1374(9) 0.2280(6) 1.000 8 d ? d Uani 0.0371(10)
H4A H 0.3710 0.0788 0.2420 1.000 8 d ? calc Uiso 0.04400
C5 C 0.3771(7) 0.2500 0.2413(9) 1.000 4 c ? d Uani 0.0371(10)
H5A H 0.3331 0.2500 0.2644 1.000 4 c ? calc Uiso 0.04400
C6 C 0.4717(12) 0.2500 -0.0641(12) 1.000 4 c ? d Uani 0.069(4)
H6A H 0.5146 0.2500 -0.0899 1.000 4 c ? calc Uiso 0.08300
C7 C 0.4484(7) 0.1396(13) -0.0502(7) 1.000 8 d ? d Uani 0.062(3)
H7A H 0.4796 0.0817 -0.0667 1.000 8 d ? calc Uiso 0.07500
C8 C 0.3892(7) 0.0926(11) -0.0171(7) 1.000 8 d ? d Uani 0.059(2)
H8A H 0.3898 0.0103 -0.0177 1.000 8 d ? calc Uiso 0.07100
C9 C 0.3284(7) 0.1363(13) 0.0172(8) 1.000 8 d ? d Uani 0.063(2)
H9A H 0.2987 0.0774 0.0359 1.000 8 d ? calc Uiso 0.07500
C10 C 0.3028(9) 0.2500 0.0291(11) 1.000 4 c ? d Uani 0.061(3)
H10A H 0.2581 0.2500 0.0499 1.000 4 c ? calc Uiso 0.07300
C11 C 0.4303(6) 0.1481(13) -0.2990(8) 1.000 8 d ? d Uani 0.062(3)
H11A H 0.4531 0.1458 -0.2450 1.000 8 d ? calc Uiso 0.07400
H11B H 0.4652 0.1475 -0.3425 1.000 8 d ? calc Uiso 0.07400
C12 C 0.3859(7) 0.0471(12) -0.3080(8) 1.000 8 d ? d Uani 0.064(3)
H12A H 0.3600 0.0530 -0.3598 1.000 8 d ? calc Uiso 0.07700
H12B H 0.4131 -0.0248 -0.3099 1.000 8 d ? calc Uiso 0.07700
C13 C 0.3008(7) -0.0579(11) -0.2362(10) 1.000 8 d ? d Uani 0.070(3)
H13A H 0.3300 -0.1274 -0.2356 1.000 8 d ? calc Uiso 0.08400
H13B H 0.2710 -0.0622 -0.2848 1.000 8 d ? calc Uiso 0.08400
C14 C 0.2595(8) -0.0531(12) -0.1596(9) 1.000 8 d ? d Uani 0.074(3)
H14A H 0.2329 -0.1251 -0.1536 1.000 8 d ? calc Uiso 0.08900
H14B H 0.2892 -0.0450 -0.1111 1.000 8 d ? calc Uiso 0.08900
C15 C 0.1669(8) 0.0481(16) -0.1030(8) 1.000 8 d ? d Uani 0.079(3)
H15A H 0.1889 0.0556 -0.0487 1.000 8 d ? calc Uiso 0.09400
H15B H 0.1395 -0.0235 -0.1030 1.000 8 d ? calc Uiso 0.09400
C16 C 0.1237(6) 0.1493(17) -0.1187(8) 1.000 8 d ? d Uani 0.079(4)
H16A H 0.1071 0.1474 -0.1759 1.000 8 d ? calc Uiso 0.09500
H16B H 0.0842 0.1477 -0.0815 1.000 8 d ? calc Uiso 0.09500
O5 O 0.1847(14) 0.239(3) -0.3070(13) 0.250 8 d ? d Uiso 0.063(8)
C17 C 0.202(3) 0.139(3) -0.363(3) 0.250 8 d ? d Uiso 0.069(14)
H17A H 0.1614 0.0939 -0.3773 0.250 8 d ? calc Uiso 0.08300
H17B H 0.2351 0.0866 -0.3365 0.250 8 d ? calc Uiso 0.08300
C18 C 0.233(2) 0.194(3) -0.440(2) 0.250 8 d ? d Uiso 0.052(11)
H18A H 0.2824 0.1955 -0.4358 0.250 8 d ? calc Uiso 0.06300
H18B H 0.2200 0.1485 -0.4893 0.250 8 d ? calc Uiso 0.06300
C19 C 0.205(2) 0.316(3) -0.4451(16) 0.250 8 d ? d Uiso 0.045(10)
H19A H 0.1694 0.3202 -0.4881 0.250 8 d ? calc Uiso 0.05400
H19B H 0.2409 0.3712 -0.4586 0.250 8 d ? calc Uiso 0.05400
C20 C 0.1744(16) 0.343(2) -0.3608(17) 0.250 8 d ? d Uiso 0.024(6)
H20A H 0.1971 0.4117 -0.3367 0.250 8 d ? calc Uiso 0.02900
H20B H 0.1257 0.3606 -0.3662 0.250 8 d ? calc Uiso 0.02900
O6 O -0.0384(8) 0.3431(14) 0.0092(11) 0.500 8 d ? d Uiso 0.066(5)
C21 C 0.0131(12) 0.3689(19) 0.0750(15) 0.500 8 d ? d Uiso 0.060(6)
H21A H -0.0082 0.4093 0.1219 0.500 8 d ? calc Uiso 0.07200
H21B H 0.0497 0.4183 0.0530 0.500 8 d ? calc Uiso 0.07200
C22 C 0.0407(8) 0.250(3) 0.1016(12) 0.500 4 c ? d Uiso 0.061(5)
H22A H 0.0849 0.2352 0.0754 0.500 8 d ? calc Uiso 0.07300
H22B H 0.0466 0.2477 0.1619 0.500 8 d ? calc Uiso 0.07300
C23 C -0.0112(11) 0.1601(17) 0.0742(15) 0.500 8 d ? d Uiso 0.051(6)
H23A H -0.0283 0.1162 0.1221 0.500 8 d ? calc Uiso 0.06200
H23B H 0.0094 0.1048 0.0351 0.500 8 d ? calc Uiso 0.06200
C24 C -0.0687(8) 0.2271(14) 0.0328(12) 0.500 8 d ? d Uiso 0.048(5)
H24A H -0.0850 0.1854 -0.0163 0.500 8 d ? calc Uiso 0.05700
H24B H -0.1068 0.2378 0.0713 0.500 8 d ? calc Uiso 0.05700


loop_
_atom_site_aniso_label
_atom_site_aniso_U_11
_atom_site_aniso_U_22
_atom_site_aniso_U_33
_atom_site_aniso_U_12
_atom_site_aniso_U_13
_atom_site_aniso_U_23
Dy1 0.0345(3) 0.0304(3) 0.0225(3) 0.00000 -0.0084(2) 0.00000
K1 0.063(2) 0.0380(15) 0.0469(18) 0.00000 0.0217(16) 0.00000
O1 0.031(5) 0.066(6) 0.055(6) 0.00000 0.004(4) 0.00000
O2 0.059(4) 0.043(4) 0.058(4) 0.007(3) -0.016(3) -0.013(3)
O3 0.062(4) 0.065(4) 0.044(4) -0.029(3) -0.015(3) 0.013(3)
O4 0.033(5) 0.117(8) 0.042(7) 0.00000 -0.004(4) 0.00000
C1 0.041(2) 0.041(2) 0.0292(19) 0.00000 -0.0044(18) 0.00000
C2 0.041(2) 0.041(2) 0.0292(19) 0.00000 -0.0044(18) 0.00000
C3 0.041(2) 0.041(2) 0.0292(19) 0.00000 -0.0044(18) 0.00000
C4 0.041(2) 0.041(2) 0.0292(19) 0.00000 -0.0044(18) 0.00000
C5 0.041(2) 0.041(2) 0.0292(19) 0.00000 -0.0044(18) 0.00000
C6 0.079(11) 0.080(9) 0.050(8) 0.00000 0.004(8) 0.00000
C7 0.088(7) 0.074(7) 0.025(4) 0.006(6) -0.014(4) -0.004(4)
C8 0.092(6) 0.042(5) 0.043(5) -0.006(4) -0.029(4) -0.009(4)
C9 0.065(5) 0.071(7) 0.052(4) -0.024(5) -0.030(4) 0.004(5)
C10 0.042(7) 0.097(9) 0.044(5) 0.00000 -0.018(5) 0.00000
C11 0.042(5) 0.094(8) 0.050(6) 0.025(5) -0.002(5) -0.005(6)
C12 0.070(7) 0.066(6) 0.055(7) 0.035(5) -0.013(5) -0.014(6)
C13 0.079(8) 0.042(5) 0.088(8) 0.003(5) -0.045(5) -0.012(6)
C14 0.093(8) 0.050(6) 0.078(8) -0.028(5) -0.041(6) 0.020(6)
C15 0.083(8) 0.113(8) 0.040(7) -0.054(6) -0.004(5) 0.020(7)
C16 0.045(6) 0.150(11) 0.042(6) -0.031(5) 0.004(5) -0.006(8)

loop_
_geom_bond_atom_site_label_1
_geom_bond_atom_site_label_2
_geom_bond_site_symmetry_1
_geom_bond_site_symmetry_2
_geom_bond_distance
_geom_bond_publ_flag
Dy1 C4 . 8 2.637(10) no
Dy1 C4 . . 2.637(10) no
Dy1 C2 . . 2.636(10) no
Dy1 C2 . 8 2.636(10) no
Dy1 C9 . 8 2.654(11) no
Dy1 C9 . . 2.654(11) no
Dy1 C7 . . 2.655(12) no
Dy1 C7 . 8 2.655(12) no
Dy1 C3 . . 2.643(10) no
Dy1 C3 . 8 2.643(10) no
Dy1 C8 . . 2.639(11) no
Dy1 C8 . 8 2.639(11) no
K1 O2 . 8 2.806(8) no
K1 O2 . . 2.806(8) no
K1 O3 . . 2.888(8) no
K1 O3 . 8 2.888(8) no
K1 O4 . . 2.889(12) no
K1 O1 . . 2.936(12) no
K1 C10 . . 3.162(18) no
K1 O5 . . 3.23(3) no
K1 O5 . 8 3.23(3) no
K1 C9 . 8 3.299(13) no
K1 C9 . . 3.299(13) no
K1 C8 . 8 3.517(13) no
O1 C11 . 8 1.419(14) no
O1 C11 . . 1.419(14) no
O2 C12 . . 1.428(16) no
O2 C13 . . 1.418(15) no
O3 C14 . . 1.401(17) no
O3 C15 . . 1.421(17) no
O4 C16 . 8 1.393(17) no
O4 C16 . . 1.393(17) no
C1 C2 . . 1.403(11) no
C1 C2 . 8 1.403(11) no
C2 C3 . . 1.419(13) no
C3 C4 . . 1.412(13) no
C4 C5 . . 1.412(12) no
C5 C4 . 8 1.412(12) no
C6 C7 . . 1.375(17) no
C6 C7 . 8 1.375(17) no
C7 C8 . . 1.401(19) no
C8 C9 . . 1.422(19) no
C9 C10 . . 1.420(17) no
C10 C9 . 8 1.420(17) no
C11 C12 . . 1.47(2) no
C13 C14 . . 1.49(2) no
C15 C16 . . 1.47(2) no
O5 C20 . . 1.503(18) no
O5 C17 . . 1.514(18) no
C17 C18 . . 1.524(18) no
C18 C19 . . 1.516(18) no
C19 C20 . . 1.531(18) no
O6 C21 . . 1.510(16) no
O6 C24 . . 1.517(16) no
C21 C22 . . 1.538(18) no
C22 C23 . . 1.531(17) no
C23 C24 . . 1.534(16) no

loop_
_geom_angle_atom_site_label_1
_geom_angle_atom_site_label_2
_geom_angle_atom_site_label_3
_geom_angle_site_symmetry_1
_geom_angle_site_symmetry_2
_geom_angle_site_symmetry_3
_geom_angle
_geom_angle_publ_flag
C4 Dy1 C4 8 . . 59.1(4) no
C4 Dy1 C2 8 . . 88.7(3) no
C4 Dy1 C2 . . . 59.6(3) no
C4 Dy1 C2 8 . 8 59.6(3) no
C4 Dy1 C2 . . 8 88.7(3) no
C2 Dy1 C2 . . 8 58.8(4) no
C4 Dy1 C9 8 . 8 89.9(4) no
C4 Dy1 C9 . . 8 119.0(4) no
C2 Dy1 C9 . . 8 178.4(4) no
C2 Dy1 C9 8 . 8 120.9(4) no
C4 Dy1 C9 8 . . 119.0(4) no
C4 Dy1 C9 . . . 89.9(4) no
C2 Dy1 C9 . . . 120.9(4) no
C2 Dy1 C9 8 . . 178.4(4) no
C9 Dy1 C9 8 . . 59.3(6) no
C4 Dy1 C7 8 . . 177.7(4) no
C4 Dy1 C7 . . . 121.7(4) no
C2 Dy1 C7 . . . 93.5(4) no
C2 Dy1 C7 8 . . 122.2(4) no
C9 Dy1 C7 8 . . 87.9(4) no
C9 Dy1 C7 . . . 59.2(5) no
C4 Dy1 C7 8 . 8 121.7(4) no
C4 Dy1 C7 . . 8 177.7(4) no
C2 Dy1 C7 . . 8 122.2(4) no
C2 Dy1 C7 8 . 8 93.5(4) no
C9 Dy1 C7 8 . 8 59.2(5) no
C9 Dy1 C7 . . 8 87.8(4) no
C7 Dy1 C7 . . 8 57.4(6) no
C4 Dy1 C3 8 . . 80.1(3) no
C4 Dy1 C3 . . . 31.0(3) no
C2 Dy1 C3 . . . 31.2(3) no
C2 Dy1 C3 8 . . 80.0(3) no
C9 Dy1 C3 8 . . 147.7(4) no
C9 Dy1 C3 . . . 99.2(4) no
C7 Dy1 C3 . . . 101.6(4) no
C7 Dy1 C3 8 . . 150.2(4) no
C4 Dy1 C3 8 . 8 31.0(3) no
C4 Dy1 C3 . . 8 80.1(3) no
C2 Dy1 C3 . . 8 80.0(3) no
C2 Dy1 C3 8 . 8 31.2(3) no
C9 Dy1 C3 8 . 8 99.2(4) no
C9 Dy1 C3 . . 8 147.7(4) no
C7 Dy1 C3 . . 8 150.2(4) no
C7 Dy1 C3 8 . 8 101.6(4) no
C3 Dy1 C3 . . 8 87.9(4) no
C4 Dy1 C8 8 . . 148.1(4) no
C4 Dy1 C8 . . . 99.8(4) no
C2 Dy1 C8 . . . 100.9(4) no
C2 Dy1 C8 8 . . 150.0(4) no
C9 Dy1 C8 8 . . 79.9(4) no
C9 Dy1 C8 . . . 31.2(4) no
C7 Dy1 C8 . . . 30.7(4) no
C7 Dy1 C8 8 . . 78.5(4) no
C3 Dy1 C8 . . . 92.5(3) no
C3 Dy1 C8 8 . . 178.9(4) no
C4 Dy1 C8 8 . 8 99.8(4) no
C4 Dy1 C8 . . 8 148.1(4) no
C2 Dy1 C8 . . 8 150.0(4) no
C2 Dy1 C8 8 . 8 100.9(4) no
C9 Dy1 C8 8 . 8 31.2(4) no
C9 Dy1 C8 . . 8 79.9(4) no
C7 Dy1 C8 . . 8 78.5(4) no
C7 Dy1 C8 8 . 8 30.7(4) no
C3 Dy1 C8 . . 8 178.9(4) no
C3 Dy1 C8 8 . 8 92.5(3) no
C8 Dy1 C8 . . 8 87.0(5) no
O2 K1 O2 8 . . 116.0(4) no
O2 K1 O3 8 . . 150.5(3) no
O2 K1 O3 . . . 57.6(3) no
O2 K1 O3 8 . 8 57.6(3) no
O2 K1 O3 . . 8 150.5(3) no
O3 K1 O3 . . 8 111.9(4) no
O2 K1 O4 8 . . 115.5(2) no
O2 K1 O4 . . . 115.5(2) no
O3 K1 O4 . . . 58.3(2) no
O3 K1 O4 8 . . 58.3(2) no
O2 K1 O1 8 . . 58.09(19) no
O2 K1 O1 . . . 58.09(19) no
O3 K1 O1 . . . 110.3(2) no
O3 K1 O1 8 . . 110.3(2) no
O4 K1 O1 . . . 148.3(4) no
O2 K1 C10 8 . . 115.2(2) no
O2 K1 C10 . . . 115.2(2) no
O3 K1 C10 . . . 91.3(3) no
O3 K1 C10 8 . . 91.3(3) no
O4 K1 C10 . . . 72.1(4) no
O1 K1 C10 . . . 139.6(4) no
O2 K1 O5 8 . . 86.1(6) no
O2 K1 O5 . . . 82.3(7) no
O3 K1 O5 . . . 64.8(6) no
O3 K1 O5 8 . . 68.8(7) no
O4 K1 O5 . . . 65.5(5) no
O1 K1 O5 . . . 82.9(5) no
C10 K1 O5 . . . 137.5(5) no
O2 K1 O5 8 . 8 82.3(7) no
O2 K1 O5 . . 8 86.1(6) no
O3 K1 O5 . . 8 68.9(7) no
O3 K1 O5 8 . 8 64.8(6) no
O4 K1 O5 . . 8 65.5(5) no
O1 K1 O5 . . 8 82.9(5) no
C10 K1 O5 . . 8 137.5(5) no
O5 K1 O5 . . 8 4.5(14) no
O2 K1 C9 8 . 8 89.9(3) no
O2 K1 C9 . . 8 132.3(3) no
O3 K1 C9 . . 8 115.9(3) no
O3 K1 C9 8 . 8 77.1(3) no
O4 K1 C9 . . 8 82.6(3) no
O1 K1 C9 . . 8 126.0(3) no
C10 K1 C9 . . 8 25.3(3) no
O5 K1 C9 . . 8 142.0(6) no
O5 K1 C9 8 . 8 139.1(6) no
O2 K1 C9 8 . . 132.3(3) no
O2 K1 C9 . . . 89.9(3) no
O3 K1 C9 . . . 77.1(3) no
O3 K1 C9 8 . . 115.9(3) no
O4 K1 C9 . . . 82.6(3) no
O1 K1 C9 . . . 126.0(3) no
C10 K1 C9 . . . 25.3(3) no
O5 K1 C9 . . . 139.1(6) no
O5 K1 C9 8 . . 142.0(6) no
C9 K1 C9 8 . . 46.9(5) no
O2 K1 C8 8 . 8 72.8(3) no
O2 K1 C8 . . 8 125.4(3) no
O3 K1 C8 . . 8 136.0(3) no
O3 K1 C8 8 . 8 82.2(3) no
O4 K1 C8 . . 8 104.8(3) no
O1 K1 C8 . . 8 102.3(3) no
C10 K1 C8 . . 8 45.6(3) no
O5 K1 C8 . . 8 150.4(7) no
O5 K1 C8 8 . 8 146.0(7) no
C9 K1 C8 8 . 8 23.8(3) no
C9 K1 C8 . . 8 59.7(3) no
C11 O1 C11 8 . . 111.9(14) no
C11 O1 K1 8 . . 106.9(7) no
C11 O1 K1 . . . 106.9(7) no
C12 O2 C13 . . . 113.9(11) no
C12 O2 K1 . . . 120.4(7) no
C13 O2 K1 . . . 121.0(8) no
C14 O3 C15 . . . 113.9(11) no
C14 O3 K1 . . . 108.2(7) no
C15 O3 K1 . . . 110.3(8) no
C16 O4 C16 8 . . 113.2(16) no
C16 O4 K1 8 . . 116.5(8) no
C16 O4 K1 . . . 116.5(8) no
C2 C1 C2 . . 8 134.7(14) no
C2 C1 Dy1 . . . 74.1(7) no
C2 C1 Dy1 8 . . 74.1(7) no
C1 C2 C3 . . . 135.(1) no
C1 C2 Dy1 . . . 75.1(7) no
C3 C2 Dy1 . . . 74.6(6) no
C2 C3 C4 . . . 135.4(10) no
C2 C3 Dy1 . . . 74.2(5) no
C4 C3 Dy1 . . . 74.3(6) no
C5 C4 C3 . . . 135.2(10) no
C5 C4 Dy1 . . . 75.2(7) no
C3 C4 Dy1 . . . 74.7(6) no
C4 C5 C4 . . 8 134.1(14) no
C4 C5 Dy1 . . . 73.8(7) no
C4 C5 Dy1 8 . . 73.8(7) no
C7 C6 C7 . . 8 136.(2) no
C7 C6 Dy1 . . . 74.6(10) no
C7 C6 Dy1 8 . . 74.6(10) no
C6 C7 C8 . . . 134.7(16) no
C6 C7 Dy1 . . . 75.5(10) no
C8 C7 Dy1 . . . 74.0(7) no
C9 C8 C7 . . . 136.5(12) no
C9 C8 Dy1 . . . 75.0(6) no
C7 C8 Dy1 . . . 75.3(7) no
C9 C8 K1 . . . 69.5(7) no
C7 C8 K1 . . . 88.2(7) no
Dy1 C8 K1 . . . 104.4(4) no
C8 C9 C10 . . . 133.2(14) no
C8 C9 Dy1 . . . 73.8(6) no
C10 C9 Dy1 . . . 75.3(8) no
C8 C9 K1 . . . 86.7(8) no
C10 C9 K1 . . . 72.0(9) no
Dy1 C9 K1 . . . 110.1(4) no
C9 C10 C9 8 . . 135.0(18) no
C9 C10 Dy1 8 . . 73.7(8) no
C9 C10 Dy1 . . . 73.7(8) no
C9 C10 K1 8 . . 82.8(9) no
C9 C10 K1 . . . 82.8(9) no
Dy1 C10 K1 . . . 113.7(6) no
O1 C11 C12 . . . 108.5(9) no
O2 C12 C11 . . . 108.6(10) no
O2 C13 C14 . . . 108.1(11) no
O3 C14 C13 . . . 107.7(11) no
O3 C15 C16 . . . 108.3(11) no
O4 C16 C15 . . . 109.1(10) no
C20 O5 C17 . . . 106.8(14) no
C20 O5 K1 . . . 119.(2) no
C17 O5 K1 . . . 108.(3) no
O5 C17 C18 . . . 105.8(15) no
C19 C18 C17 . . . 106.5(15) no
C18 C19 C20 . . . 106.7(13) no
O5 C20 C19 . . . 107.6(13) no
C21 O6 C24 . . . 105.2(12) no
O6 C21 C22 . . . 105.4(12) no
C23 C22 C21 . . . 106.4(12) no
C22 C23 C24 . . . 106.6(11) no
O6 C24 C23 . . . 105.2(11) no

loop_
_geom_torsion_atom_site_label_1
_geom_torsion_atom_site_label_2
_geom_torsion_atom_site_label_3
_geom_torsion_atom_site_label_4
_geom_torsion_site_symmetry_1
_geom_torsion_site_symmetry_2
_geom_torsion_site_symmetry_3
_geom_torsion_site_symmetry_4
_geom_torsion
_geom_torsion_publ_flag
O2 K1 O1 C11 8 . . 8 32.4(7) no
O2 K1 O1 C11 . . . 8 -152.4(9) no
O3 K1 O1 C11 . . . 8 -177.9(7) no
O3 K1 O1 C11 8 . . 8 58.0(8) no
O4 K1 O1 C11 . . . 8 120.0(8) no
C10 K1 O1 C11 . . . 8 -60.0(8) no
O5 K1 O1 C11 . . . 8 122.3(10) no
O5 K1 O1 C11 8 . . 8 117.8(10) no
C9 K1 O1 C11 8 . . 8 -30.5(9) no
C9 K1 O1 C11 . . . 8 -89.4(8) no
C8 K1 O1 C11 8 . . 8 -28.1(8) no
O2 K1 O1 C11 8 . . . 152.4(9) no
O2 K1 O1 C11 . . . . -32.4(7) no
O3 K1 O1 C11 . . . . -58.0(8) no
O3 K1 O1 C11 8 . . . 177.9(7) no
O4 K1 O1 C11 . . . . -120.0(8) no
C10 K1 O1 C11 . . . . 60.0(8) no
O5 K1 O1 C11 . . . . -117.8(10) no
O5 K1 O1 C11 8 . . . -122.3(10) no
C9 K1 O1 C11 8 . . . 89.4(8) no
C9 K1 O1 C11 . . . . 30.5(9) no
C8 K1 O1 C11 8 . . . 91.9(8) no
O2 K1 O2 C12 8 . . . 4.5(10) no
O3 K1 O2 C12 . . . . 151.3(8) no
O3 K1 O2 C12 8 . . . 74.2(10) no
O4 K1 O2 C12 . . . . 144.4(8) no
O1 K1 O2 C12 . . . . 0.0(8) no
C10 K1 O2 C12 . . . . -134.3(8) no
O5 K1 O2 C12 . . . . 86.4(9) no
O5 K1 O2 C12 8 . . . 84.0(9) no
C9 K1 O2 C12 8 . . . -111.7(8) no
C9 K1 O2 C12 . . . . -133.9(8) no
C8 K1 O2 C12 8 . . . -82.2(8) no
O2 K1 O2 C13 8 . . . -149.4(8) no
O3 K1 O2 C13 . . . . -2.6(8) no
O3 K1 O2 C13 8 . . . -79.7(11) no
O4 K1 O2 C13 . . . . -9.5(9) no
O1 K1 O2 C13 . . . . -154.0(9) no
C10 K1 O2 C13 . . . . 71.8(9) no
O5 K1 O2 C13 . . . . -67.6(10) no
O5 K1 O2 C13 8 . . . -70.(1) no
C9 K1 O2 C13 8 . . . 94.4(9) no
C9 K1 O2 C13 . . . . 72.2(9) no
C8 K1 O2 C13 8 . . . 123.9(8) no
O2 K1 O3 C14 8 . . . 121.4(9) no
O2 K1 O3 C14 . . . . 35.2(8) no
O3 K1 O3 C14 8 . . . -176.0(7) no
O4 K1 O3 C14 . . . . -152.2(9) no
O1 K1 O3 C14 . . . . 60.9(9) no
C10 K1 O3 C14 . . . . -84.2(9) no
O5 K1 O3 C14 . . . . 132.2(10) no
O5 K1 O3 C14 8 . . . 134.3(10) no
C9 K1 O3 C14 8 . . . -90.2(9) no
C9 K1 O3 C14 . . . . -63.0(9) no
C8 K1 O3 C14 8 . . . -74.2(10) no
O2 K1 O3 C15 8 . . . -113.3(9) no
O2 K1 O3 C15 . . . . 160.4(9) no
O3 K1 O3 C15 8 . . . -50.8(9) no
O4 K1 O3 C15 . . . . -27.0(9) no
O1 K1 O3 C15 . . . . -173.9(8) no
C10 K1 O3 C15 . . . . 41.1(9) no
O5 K1 O3 C15 . . . . -102.6(10) no
O5 K1 O3 C15 8 . . . -100.4(10) no
C9 K1 O3 C15 8 . . . 35.1(9) no
C9 K1 O3 C15 . . . . 62.2(9) no
C8 K1 O3 C15 8 . . . 51.(1) no
O2 K1 O4 C16 8 . . 8 1.2(10) no
O2 K1 O4 C16 . . . 8 -138.9(9) no
O3 K1 O4 C16 . . . 8 -145.8(11) no
O3 K1 O4 C16 8 . . 8 8.1(9) no
O1 K1 O4 C16 . . . 8 -68.8(9) no
C10 K1 O4 C16 . . . 8 111.2(9) no
O5 K1 O4 C16 . . . 8 -71.3(12) no
O5 K1 O4 C16 8 . . 8 -66.4(12) no
C9 K1 O4 C16 8 . . 8 87.5(10) no
C9 K1 O4 C16 . . . 8 134.8(10) no
C8 K1 O4 C16 8 . . 8 78.9(10) no
O2 K1 O4 C16 8 . . . 138.9(9) no
O2 K1 O4 C16 . . . . -1.2(10) no
O3 K1 O4 C16 . . . . -8.1(9) no
O3 K1 O4 C16 8 . . . 145.8(11) no
O1 K1 O4 C16 . . . . 68.9(9) no
C10 K1 O4 C16 . . . . -111.1(9) no
O5 K1 O4 C16 . . . . 66.4(12) no
O5 K1 O4 C16 8 . . . 71.3(12) no
C9 K1 O4 C16 8 . . . -134.8(10) no
C9 K1 O4 C16 . . . . -87.5(10) no
C8 K1 O4 C16 8 . . . -143.4(9) no
C4 Dy1 C1 C2 8 . . . 103.7(7) no
C4 Dy1 C1 C2 . . . . 43.7(7) no
C2 Dy1 C1 C2 8 . . . 147.4(13) no
C9 Dy1 C1 C2 8 . . . 177.0(7) no
C9 Dy1 C1 C2 . . . . -29.6(12) no
C7 Dy1 C1 C2 . . . . -76.9(8) no
C7 Dy1 C1 C2 8 . . . -135.7(7) no
C3 Dy1 C1 C2 . . . . 19.6(6) no
C3 Dy1 C1 C2 8 . . . 127.7(8) no
C8 Dy1 C1 C2 . . . . -52.0(9) no
C8 Dy1 C1 C2 8 . . . -160.7(6) no
C4 Dy1 C1 C2 8 . . 8 -43.7(7) no
C4 Dy1 C1 C2 . . . 8 -103.7(7) no
C2 Dy1 C1 C2 . . . 8 -147.4(13) no
C9 Dy1 C1 C2 8 . . 8 29.6(12) no
C9 Dy1 C1 C2 . . . 8 -177.0(7) no
C7 Dy1 C1 C2 . . . 8 135.7(7) no
C7 Dy1 C1 C2 8 . . 8 76.9(8) no
C3 Dy1 C1 C2 . . . 8 -127.7(8) no
C3 Dy1 C1 C2 8 . . 8 -19.6(6) no
C8 Dy1 C1 C2 . . . 8 160.7(6) no
C8 Dy1 C1 C2 8 . . 8 52.0(9) no
C2 C1 C2 C3 8 . . . -2.(3) no
Dy1 C1 C2 C3 . . . . -49.3(12) no
C2 C1 C2 Dy1 8 . . . 46.9(16) no
C4 Dy1 C2 C1 8 . . . -73.5(7) no
C4 Dy1 C2 C1 . . . . -127.8(8) no
C2 Dy1 C2 C1 8 . . . -18.8(8) no
C9 Dy1 C2 C1 8 . . . -101.(14) no
C9 Dy1 C2 C1 . . . . 163.0(7) no
C7 Dy1 C2 C1 . . . . 107.1(8) no
C7 Dy1 C2 C1 8 . . . 54.0(8) no
C3 Dy1 C2 C1 . . . . -146.2(10) no
C3 Dy1 C2 C1 8 . . . -43.5(7) no
C8 Dy1 C2 C1 . . . . 137.2(7) no
C8 Dy1 C2 C1 8 . . . 34.1(11) no
C4 Dy1 C2 C3 8 . . . 72.7(6) no
C4 Dy1 C2 C3 . . . . 18.4(5) no
C2 Dy1 C2 C3 8 . . . 127.4(5) no
C9 Dy1 C2 C3 8 . . . 45.(15) no
C9 Dy1 C2 C3 . . . . -50.8(7) no
C7 Dy1 C2 C3 . . . . -106.7(6) no
C7 Dy1 C2 C3 8 . . . -159.8(6) no
C3 Dy1 C2 C3 8 . . . 102.7(7) no
C8 Dy1 C2 C3 . . . . -76.6(6) no
C8 Dy1 C2 C3 8 . . . -179.7(7) no
C1 C2 C3 C4 . . . . 3.(2) no
Dy1 C2 C3 C4 . . . . -46.4(11) no
C1 C2 C3 Dy1 . . . . 49.5(13) no
C4 Dy1 C3 C2 8 . . . -104.2(6) no
C4 Dy1 C3 C2 . . . . -148.1(9) no
C2 Dy1 C3 C2 8 . . . -43.7(5) no
C9 Dy1 C3 C2 8 . . . -177.9(7) no
C9 Dy1 C3 C2 . . . . 137.7(6) no
C7 Dy1 C3 C2 . . . . 77.4(6) no
C7 Dy1 C3 C2 8 . . . 35.9(10) no
C3 Dy1 C3 C2 8 . . . -74.0(6) no
C8 Dy1 C3 C2 . . . . 107.0(6) no
C8 Dy1 C3 C2 8 . . . 173.(18) no
C4 Dy1 C3 C4 8 . . . 43.9(5) no
C2 Dy1 C3 C4 . . . . 148.1(9) no
C2 Dy1 C3 C4 8 . . . 104.4(6) no
C9 Dy1 C3 C4 8 . . . -29.8(9) no
C9 Dy1 C3 C4 . . . . -74.2(6) no
C7 Dy1 C3 C4 . . . . -134.5(6) no
C7 Dy1 C3 C4 8 . . . -176.0(7) no
C3 Dy1 C3 C4 8 . . . 74.1(6) no
C8 Dy1 C3 C4 . . . . -104.9(6) no
C8 Dy1 C3 C4 8 . . . -39.(18) no
C2 C3 C4 C5 . . . . -3.(2) no
Dy1 C3 C4 C5 . . . . -49.5(13) no
C2 C3 C4 Dy1 . . . . 46.4(11) no
C4 Dy1 C4 C5 8 . . . 19.1(7) no
C2 Dy1 C4 C5 . . . . 127.9(8) no
C2 Dy1 C4 C5 8 . . . 73.8(7) no
C9 Dy1 C4 C5 8 . . . -51.3(8) no
C9 Dy1 C4 C5 . . . . -105.5(8) no
C7 Dy1 C4 C5 . . . . -158.3(7) no
C7 Dy1 C4 C5 8 . . . -91.(10) no
C3 Dy1 C4 C5 . . . . 146.4(10) no
C3 Dy1 C4 C5 8 . . . 43.7(7) no
C8 Dy1 C4 C5 . . . . -135.2(7) no
C8 Dy1 C4 C5 8 . . . -35.(1) no
C4 Dy1 C4 C3 8 . . . -127.3(5) no
C2 Dy1 C4 C3 . . . . -18.5(5) no
C2 Dy1 C4 C3 8 . . . -72.5(6) no
C9 Dy1 C4 C3 8 . . . 162.3(6) no
C9 Dy1 C4 C3 . . . . 108.2(6) no
C7 Dy1 C4 C3 . . . . 55.3(7) no
C7 Dy1 C4 C3 8 . . . 122.(10) no
C3 Dy1 C4 C3 8 . . . -102.7(7) no
C8 Dy1 C4 C3 . . . . 78.5(6) no
C8 Dy1 C4 C3 8 . . . 178.6(7) no
C3 C4 C5 C4 . . . 8 3.(3) no
Dy1 C4 C5 C4 . . . 8 -46.8(16) no
C3 C4 C5 Dy1 . . . . 49.3(12) no
C4 Dy1 C5 C4 8 . . . -147.0(13) no
C2 Dy1 C5 C4 . . . . -43.6(7) no
C2 Dy1 C5 C4 8 . . . -103.3(7) no
C9 Dy1 C5 C4 8 . . . 136.5(7) no
C9 Dy1 C5 C4 . . . . 76.6(7) no
C7 Dy1 C5 C4 . . . . 37.6(12) no
C7 Dy1 C5 C4 8 . . . 175.5(7) no
C3 Dy1 C5 C4 . . . . -19.4(6) no
C3 Dy1 C5 C4 8 . . . -127.5(8) no
C8 Dy1 C5 C4 . . . . 53.6(8) no
C8 Dy1 C5 C4 8 . . . 159.4(6) no
C4 Dy1 C5 C4 . . . 8 147.0(13) no
C2 Dy1 C5 C4 . . . 8 103.3(7) no
C2 Dy1 C5 C4 8 . . 8 43.6(7) no
C9 Dy1 C5 C4 8 . . 8 -76.6(7) no
C9 Dy1 C5 C4 . . . 8 -136.5(7) no
C7 Dy1 C5 C4 . . . 8 -175.5(7) no
C7 Dy1 C5 C4 8 . . 8 -37.6(12) no
C3 Dy1 C5 C4 . . . 8 127.5(8) no
C3 Dy1 C5 C4 8 . . 8 19.4(6) no
C8 Dy1 C5 C4 . . . 8 -159.4(6) no
C8 Dy1 C5 C4 8 . . 8 -53.6(8) no
C4 Dy1 C6 C7 8 . . . -175.4(7) no
C4 Dy1 C6 C7 . . . . 27.1(19) no
C2 Dy1 C6 C7 . . . . 75.7(11) no
C2 Dy1 C6 C7 8 . . . 136.(1) no
C9 Dy1 C6 C7 8 . . . -104.3(11) no
C9 Dy1 C6 C7 . . . . -43.9(11) no
C7 Dy1 C6 C7 8 . . . -148.(2) no
C3 Dy1 C6 C7 . . . . 50.2(13) no
C3 Dy1 C6 C7 8 . . . 161.5(9) no
C8 Dy1 C6 C7 . . . . -19.7(9) no
C8 Dy1 C6 C7 8 . . . -128.6(13) no
C4 Dy1 C6 C7 8 . . 8 -27.1(19) no
C4 Dy1 C6 C7 . . . 8 175.4(7) no
C2 Dy1 C6 C7 . . . 8 -136.(1) no
C2 Dy1 C6 C7 8 . . 8 -75.7(11) no
C9 Dy1 C6 C7 8 . . 8 43.9(11) no
C9 Dy1 C6 C7 . . . 8 104.3(11) no
C7 Dy1 C6 C7 . . . 8 148.(2) no
C3 Dy1 C6 C7 . . . 8 -161.5(9) no
C3 Dy1 C6 C7 8 . . 8 -50.2(13) no
C8 Dy1 C6 C7 . . . 8 128.6(13) no
C8 Dy1 C6 C7 8 . . 8 19.7(9) no
C7 C6 C7 C8 8 . . . 2.(4) no
Dy1 C6 C7 C8 . . . . 49.0(16) no
C7 C6 C7 Dy1 8 . . . -47.(2) no
C4 Dy1 C7 C6 8 . . . 87.(10) no
C4 Dy1 C7 C6 . . . . -164.4(11) no
C2 Dy1 C7 C6 . . . . -108.3(11) no
C2 Dy1 C7 C6 8 . . . -53.4(12) no
C9 Dy1 C7 C6 8 . . . 72.4(12) no
C9 Dy1 C7 C6 . . . . 127.4(12) no
C7 Dy1 C7 C6 8 . . . 18.2(12) no
C3 Dy1 C7 C6 . . . . -138.8(11) no
C3 Dy1 C7 C6 8 . . . -32.4(15) no
C8 Dy1 C7 C6 . . . . 146.1(15) no
C8 Dy1 C7 C6 8 . . . 42.4(11) no
C4 Dy1 C7 C8 8 . . . -60.(10) no
C4 Dy1 C7 C8 . . . . 49.5(9) no
C2 Dy1 C7 C8 . . . . 105.5(8) no
C2 Dy1 C7 C8 8 . . . 160.5(7) no
C9 Dy1 C7 C8 8 . . . -73.7(8) no
C9 Dy1 C7 C8 . . . . -18.7(7) no
C7 Dy1 C7 C8 8 . . . -128.0(7) no
C3 Dy1 C7 C8 . . . . 75.1(8) no
C3 Dy1 C7 C8 8 . . . -178.5(7) no
C8 Dy1 C7 C8 8 . . . -103.7(10) no
C6 C7 C8 C9 . . . . -1.(3) no
Dy1 C7 C8 C9 . . . . 48.3(13) no
C6 C7 C8 Dy1 . . . . -49.4(17) no
C6 C7 C8 K1 . . . . 56.0(18) no
Dy1 C7 C8 K1 . . . . 105.4(3) no
C4 Dy1 C8 C9 8 . . . 28.4(11) no
C4 Dy1 C8 C9 . . . . 73.2(8) no
C2 Dy1 C8 C9 . . . . 133.8(7) no
C2 Dy1 C8 C9 8 . . . 177.9(7) no
C9 Dy1 C8 C9 8 . . . -44.8(8) no
C7 Dy1 C8 C9 . . . . -147.8(12) no
C7 Dy1 C8 C9 8 . . . -105.2(8) no
C3 Dy1 C8 C9 . . . . 103.6(8) no
C3 Dy1 C8 C9 8 . . . -9.(18) no
C8 Dy1 C8 C9 8 . . . -75.4(9) no
C4 Dy1 C8 C7 8 . . . 176.2(7) no
C4 Dy1 C8 C7 . . . . -139.0(7) no
C2 Dy1 C8 C7 . . . . -78.3(8) no
C2 Dy1 C8 C7 8 . . . -34.3(11) no
C9 Dy1 C8 C7 8 . . . 103.0(8) no
C9 Dy1 C8 C7 . . . . 147.8(12) no
C7 Dy1 C8 C7 8 . . . 42.7(7) no
C3 Dy1 C8 C7 . . . . -108.6(8) no
C3 Dy1 C8 C7 8 . . . 139.(18) no
C8 Dy1 C8 C7 8 . . . 72.4(9) no
C4 Dy1 C8 K1 8 . . . 92.0(7) no
C4 Dy1 C8 K1 . . . . 136.8(4) no
C2 Dy1 C8 K1 . . . . -162.5(4) no
C2 Dy1 C8 K1 8 . . . -118.5(6) no
C9 Dy1 C8 K1 8 . . . 18.8(5) no
C9 Dy1 C8 K1 . . . . 63.6(7) no
C7 Dy1 C8 K1 . . . . -84.2(8) no
C7 Dy1 C8 K1 8 . . . -41.5(5) no
C3 Dy1 C8 K1 . . . . 167.2(4) no
C3 Dy1 C8 K1 8 . . . 54.(18) no
C8 Dy1 C8 K1 8 . . . -11.8(7) no
O2 K1 C8 C9 8 . . . 115.6(7) no
O2 K1 C8 C9 . . . . -134.3(8) no
O3 K1 C8 C9 . . . . -75.8(7) no
O3 K1 C8 C9 8 . . . 37.7(9) no
O4 K1 C8 C9 . . . . -21.7(7) no
O1 K1 C8 C9 . . . . 175.0(7) no
C10 K1 C8 C9 . . . . 23.7(7) no
O5 K1 C8 C9 . . . . -89.5(11) no
O5 K1 C8 C9 8 . . . -87.8(11) no
C9 K1 C8 C9 8 . . . 50.3(8) no
C8 K1 C8 C9 8 . . . 77.5(8) no
O2 K1 C8 C7 8 . . . -26.2(9) no
O2 K1 C8 C7 . . . . 83.8(8) no
O3 K1 C8 C7 . . . . 142.3(8) no
O3 K1 C8 C7 8 . . . -104.2(8) no
O4 K1 C8 C7 . . . . -163.5(7) no
O1 K1 C8 C7 . . . . 33.2(8) no
C10 K1 C8 C7 . . . . -118.2(9) no
O5 K1 C8 C7 . . . . 128.6(10) no
O5 K1 C8 C7 8 . . . 130.4(11) no
C9 K1 C8 C7 8 . . . -91.5(8) no
C9 K1 C8 C7 . . . . -141.9(11) no
C8 K1 C8 C7 8 . . . -64.4(8) no
O2 K1 C8 Dy1 8 . . . 48.1(6) no
O2 K1 C8 Dy1 . . . . 158.1(5) no
O3 K1 C8 Dy1 . . . . -143.4(5) no
O3 K1 C8 Dy1 8 . . . -29.9(7) no
O4 K1 C8 Dy1 . . . . -89.2(4) no
O1 K1 C8 Dy1 . . . . 107.5(4) no
C10 K1 C8 Dy1 . . . . -43.8(4) no
O5 K1 C8 Dy1 . . . . -157.1(8) no
O5 K1 C8 Dy1 8 . . . -155.3(9) no
C9 K1 C8 Dy1 8 . . . -17.2(5) no
C9 K1 C8 Dy1 . . . . -67.6(7) no
C8 K1 C8 Dy1 8 . . . 9.9(6) no
C7 C8 C9 C10 . . . . 2.(3) no
Dy1 C8 C9 C10 . . . . 50.7(15) no
K1 C8 C9 C10 . . . . -61.4(15) no
C7 C8 C9 Dy1 . . . . -48.4(13) no
K1 C8 C9 Dy1 . . . . -112.1(3) no
C7 C8 C9 K1 . . . . 63.7(14) no
Dy1 C8 C9 K1 . . . . 112.1(3) no
C4 Dy1 C9 C8 8 . . . -163.3(7) no
C4 Dy1 C9 C8 . . . . -109.4(8) no
C2 Dy1 C9 C8 . . . . -55.7(9) no
C2 Dy1 C9 C8 8 . . . -137.(14) no
C9 Dy1 C9 C8 8 . . . 126.1(7) no
C7 Dy1 C9 C8 . . . . 18.4(7) no
C7 Dy1 C9 C8 8 . . . 71.2(8) no
C3 Dy1 C9 C8 . . . . -79.7(8) no
C3 Dy1 C9 C8 8 . . . 179.7(7) no
C8 Dy1 C9 C8 8 . . . 101.0(9) no
C4 Dy1 C9 C10 8 . . . 52.4(11) no
C4 Dy1 C9 C10 . . . . 106.3(10) no
C2 Dy1 C9 C10 . . . . 160.0(9) no
C2 Dy1 C9 C10 8 . . . 79.(15) no
C9 Dy1 C9 C10 8 . . . -18.2(11) no
C7 Dy1 C9 C10 . . . . -125.9(11) no
C7 Dy1 C9 C10 8 . . . -73.2(10) no
C3 Dy1 C9 C10 . . . . 136.(1) no
C3 Dy1 C9 C10 8 . . . 35.3(13) no
C8 Dy1 C9 C10 . . . . -144.3(14) no
C8 Dy1 C9 C10 8 . . . -43.3(10) no
C4 Dy1 C9 K1 8 . . . 116.5(4) no
C4 Dy1 C9 K1 . . . . 170.4(5) no
C2 Dy1 C9 K1 . . . . -135.9(4) no
C2 Dy1 C9 K1 8 . . . 143.(14) no
C9 Dy1 C9 K1 8 . . . 45.9(6) no
C7 Dy1 C9 K1 . . . . -61.8(5) no
C7 Dy1 C9 K1 8 . . . -9.1(5) no
C3 Dy1 C9 K1 . . . . -159.9(4) no
C3 Dy1 C9 K1 8 . . . 99.4(7) no
C8 Dy1 C9 K1 . . . . -80.2(8) no
C8 Dy1 C9 K1 8 . . . 20.8(5) no
O2 K1 C9 C8 8 . . . -83.1(8) no
O2 K1 C9 C8 . . . . 43.1(7) no
O3 K1 C9 C8 . . . . 99.8(7) no
O3 K1 C9 C8 8 . . . -151.8(7) no
O4 K1 C9 C8 . . . . 158.9(7) no
O1 K1 C9 C8 . . . . -6.0(8) no
C10 K1 C9 C8 . . . . -137.7(12) no
O5 K1 C9 C8 . . . . 121.2(11) no
O5 K1 C9 C8 8 . . . 126.7(11) no
C9 K1 C9 C8 8 . . . -114.3(7) no
C8 K1 C9 C8 8 . . . -89.1(8) no
O2 K1 C9 C10 8 . . . 54.6(10) no
O2 K1 C9 C10 . . . . -179.2(9) no
O3 K1 C9 C10 . . . . -122.4(9) no
O3 K1 C9 C10 8 . . . -14.1(9) no
O4 K1 C9 C10 . . . . -63.4(8) no
O1 K1 C9 C10 . . . . 131.7(8) no
O5 K1 C9 C10 . . . . -101.1(13) no
O5 K1 C9 C10 8 . . . -95.6(13) no
C9 K1 C9 C10 8 . . . 23.4(9) no
C8 K1 C9 C10 8 . . . 48.6(8) no
O2 K1 C9 Dy1 8 . . . -11.7(8) no
O2 K1 C9 Dy1 . . . . 114.6(5) no
O3 K1 C9 Dy1 . . . . 171.3(6) no
O3 K1 C9 Dy1 8 . . . -80.4(6) no
O4 K1 C9 Dy1 . . . . -129.6(5) no
O1 K1 C9 Dy1 . . . . 65.5(6) no
C10 K1 C9 Dy1 . . . . -66.2(9) no
O5 K1 C9 Dy1 . . . . -167.4(9) no
O5 K1 C9 Dy1 8 . . . -161.8(10) no
C9 K1 C9 Dy1 8 . . . -42.9(6) no
C8 K1 C9 Dy1 8 . . . -17.7(5) no
C8 C9 C10 C9 . . . 8 -5.(3) no
Dy1 C9 C10 C9 . . . 8 45.(2) no
K1 C9 C10 C9 . . . 8 -72.(2) no
C8 C9 C10 Dy1 . . . . -50.2(14) no
K1 C9 C10 Dy1 . . . . -117.4(4) no
C8 C9 C10 K1 . . . . 67.2(15) no
Dy1 C9 C10 K1 . . . . 117.4(4) no
C4 Dy1 C10 C9 8 . . 8 75.9(10) no
C4 Dy1 C10 C9 . . . 8 135.6(9) no
C2 Dy1 C10 C9 . . . 8 177.0(7) no
C2 Dy1 C10 C9 8 . . 8 34.5(15) no
C9 Dy1 C10 C9 . . . 8 -148.5(19) no
C7 Dy1 C10 C9 . . . 8 -103.5(10) no
C7 Dy1 C10 C9 8 . . 8 -45.(1) no
C3 Dy1 C10 C9 . . . 8 159.1(8) no
C3 Dy1 C10 C9 8 . . 8 52.4(11) no
C8 Dy1 C10 C9 . . . 8 -127.8(11) no
C8 Dy1 C10 C9 8 . . 8 -20.7(8) no
C4 Dy1 C10 C9 8 . . . -135.6(9) no
C4 Dy1 C10 C9 . . . . -75.9(10) no
C2 Dy1 C10 C9 . . . . -34.5(15) no
C2 Dy1 C10 C9 8 . . . -177.0(7) no
C9 Dy1 C10 C9 8 . . . 148.5(19) no
C7 Dy1 C10 C9 . . . . 45.(1) no
C7 Dy1 C10 C9 8 . . . 103.5(10) no
C3 Dy1 C10 C9 . . . . -52.4(11) no
C3 Dy1 C10 C9 8 . . . -159.1(8) no
C8 Dy1 C10 C9 . . . . 20.7(8) no
C8 Dy1 C10 C9 8 . . . 127.8(11) no
C4 Dy1 C10 K1 8 . . . 150.1(2) no
C4 Dy1 C10 K1 . . . . -150.1(2) no
C2 Dy1 C10 K1 . . . . -108.7(8) no
C2 Dy1 C10 K1 8 . . . 108.7(8) no
C9 Dy1 C10 K1 8 . . . 74.3(9) no
C9 Dy1 C10 K1 . . . . -74.3(9) no
C7 Dy1 C10 K1 . . . . -29.2(3) no
C7 Dy1 C10 K1 8 . . . 29.2(3) no
C3 Dy1 C10 K1 . . . . -126.7(3) no
C3 Dy1 C10 K1 8 . . . 126.7(3) no
C8 Dy1 C10 K1 . . . . -53.6(4) no
C8 Dy1 C10 K1 8 . . . 53.6(4) no
O2 K1 C10 C9 8 . . 8 -0.9(10) no
O2 K1 C10 C9 . . . 8 138.2(7) no
O3 K1 C10 C9 . . . 8 -167.3(8) no
O3 K1 C10 C9 8 . . 8 -55.4(8) no
O4 K1 C10 C9 . . . 8 -111.3(8) no
O1 K1 C10 C9 . . . 8 68.7(8) no
O5 K1 C10 C9 . . . 8 -114.7(13) no
O5 K1 C10 C9 8 . . 8 -108.0(13) no
C9 K1 C10 C9 . . . 8 137.3(16) no
C8 K1 C10 C9 8 . . 8 22.3(7) no
O2 K1 C10 C9 8 . . . -138.2(7) no
O2 K1 C10 C9 . . . . 0.9(10) no
O3 K1 C10 C9 . . . . 55.4(8) no
O3 K1 C10 C9 8 . . . 167.3(8) no
O4 K1 C10 C9 . . . . 111.3(8) no
O1 K1 C10 C9 . . . . -68.7(8) no
O5 K1 C10 C9 . . . . 108.0(13) no
O5 K1 C10 C9 8 . . . 114.7(13) no
C9 K1 C10 C9 8 . . . -137.3(16) no
C8 K1 C10 C9 8 . . . -115.0(11) no
O2 K1 C10 Dy1 8 . . . -69.6(3) no
O2 K1 C10 Dy1 . . . . 69.6(3) no
O3 K1 C10 Dy1 . . . . 124.0(2) no
O3 K1 C10 Dy1 8 . . . -124.0(2) no
O4 K1 C10 Dy1 . . . . 180.00 no
O1 K1 C10 Dy1 . . . . 0.00 no
O5 K1 C10 Dy1 . . . . 176.7(10) no
O5 K1 C10 Dy1 8 . . . -176.7(10) no
C9 K1 C10 Dy1 8 . . . -68.7(8) no
C9 K1 C10 Dy1 . . . . 68.7(8) no
C8 K1 C10 Dy1 8 . . . -46.3(4) no
C11 O1 C11 C12 8 . . . -178.7(8) no
K1 O1 C11 C12 . . . . 64.6(11) no
C13 O2 C12 C11 . . . . -172.7(10) no
K1 O2 C12 C11 . . . . 31.6(12) no
O1 C11 C12 O2 . . . . -65.7(13) no
C12 O2 C13 C14 . . . . 176.6(10) no
K1 O2 C13 C14 . . . . -27.9(13) no
C15 O3 C14 C13 . . . . 170.8(10) no
K1 O3 C14 C13 . . . . -66.1(10) no
O2 C13 C14 O3 . . . . 63.2(12) no
C14 O3 C15 C16 . . . . -177.7(11) no
K1 O3 C15 C16 . . . . 60.4(11) no
C16 O4 C16 C15 8 . . . -179.8(8) no
K1 O4 C16 C15 . . . . 41.1(13) no
O3 C15 C16 O4 . . . . -69.1(14) no
O2 K1 O5 C20 8 . . . -10.8(16) no
O2 K1 O5 C20 . . . . -127.7(17) no
O3 K1 O5 C20 . . . . 174.5(18) no
O3 K1 O5 C20 8 . . . 45.9(16) no
O4 K1 O5 C20 . . . . 109.6(18) no
O1 K1 O5 C20 . . . . -69.1(16) no
C10 K1 O5 C20 . . . . 113.1(14) no
O5 K1 O5 C20 8 . . . 20.6(17) no
C9 K1 O5 C20 8 . . . 74.1(17) no
C9 K1 O5 C20 . . . . 151.5(14) no
C8 K1 O5 C20 8 . . . 33.(2) no
O2 K1 O5 C17 8 . . . 110.6(18) no
O2 K1 O5 C17 . . . . -6.3(18) no
O3 K1 O5 C17 . . . . -64.1(19) no
O3 K1 O5 C17 8 . . . 167.3(19) no
O4 K1 O5 C17 . . . . -129.(2) no
O1 K1 O5 C17 . . . . 52.3(18) no
C10 K1 O5 C17 . . . . -125.5(15) no
O5 K1 O5 C17 8 . . . 142.0(18) no
C9 K1 O5 C17 8 . . . -164.5(15) no
C9 K1 O5 C17 . . . . -87.2(17) no
C8 K1 O5 C17 8 . . . 154.6(17) no
C20 O5 C17 C18 . . . . 25.(5) no
K1 O5 C17 C18 . . . . -104.(3) no
O5 C17 C18 C19 . . . . -25.(5) no
C17 C18 C19 C20 . . . . 15.(4) no
C17 O5 C20 C19 . . . . -16.(4) no
K1 O5 C20 C19 . . . . 106.(3) no
C18 C19 C20 O5 . . . . 0.(4) no
C24 O6 C21 C22 . . . . 32.(2) no
O6 C21 C22 C23 . . . . -20.(2) no
C21 C22 C23 C24 . . . . -1.(2) no
C21 O6 C24 C23 . . . . -33.(2) no
C22 C23 C24 O6 . . . . 20.(2) no
